p cnf 25 25
-22 4 0
-20 13 0
-8 4 0
18 21 0
-12 -19 0
19 15 0
-16 -12 0
-24 -1 0
-5 -2 0
-18 -25 0
-22 -3 0
9 18 0
-5 -4 0
-7 2 0
19 12 0
2 -20 0
13 15 0
-20 -17 0
-24 -21 0
24 -17 0
-7 -2 0
-8 9 0
11 -13 0
-13 20 0
24 10 0
